8 4 1 1 111111
15 2 1 3 4 2 2 3 7 4 5 2 2 3 4 3 3 1 4 2 5 4 3 3 1 3 3 7 4 1 2 1 6 3 4 3 1 1 2 1 4 3 2 1 7 4 3 2 1 6 4 5 3 1 3 3 3 4 6 2 1 6 3 3 2 3 4 4 4 2 2 7 3 1 2 1 5 4 3 2 1 3 3 4 
15 2 3 3 4 1 2 1 4 3 3 3 1 6 2 4 3 7 2 1 1 3 3 2 2 3 4 7 2 1 6 2 3 2 1 1 4 3 3 1 5 3 3 4 1 2 1 7 3 2 2 1 4 2 6 2 1 3 2 7 2 2 5 3 1 2 2 1 4 1 2 1 3 3 1 2 1 5 2 3 
15 2 3 6 4 7 2 3 7 4 2 2 2 3 4 1 2 2 5 3 2 2 1 5 4 5 2 1 1 2 5 2 2 4 3 2 2 3 4 4 1 3 1 1 2 2 3 2 2 3 5 4 3 2 2 3 4 7 2 2 5 4 6 2 3 7 4 4 3 2 4 3 1 4 6 2 1 5 4 1 
15 2 3 4 4 7 2 2 4 4 3 3 1 4 2 7 4 3 2 3 3 4 2 2 2 2 3 1 2 2 1 3 4 3 1 2 3 6 4 4 2 2 7 4 3 2 1 6 4 2 2 2 2 3 1 2 2 6 4 6 2 1 7 3 7 2 2 6 4 3 3 1 3 2 1 3 7 2 1 7 4 2 
15 2 1 2 3 4 2 3 2 4 7 2 2 6 4 7 2 2 7 4 6 2 2 1 4 2 2 1 6 4 3 2 1 4 2 2 2 1 7 2 6 2 1 1 3 5 3 2 6 3 1 4 1 2 1 7 4 3 2 1 6 3 6 2 2 5 4 1 2 2 6 3 5 2 2 4 3 7 
15 2 1 7 2 3 3 1 6 3 3 4 1 2 2 6 3 5 2 1 7 2 3 2 2 4 4 7 2 2 4 4 6 3 1 1 2 2 3 3 2 1 7 2 3 2 2 6 3 5 2 1 2 3 3 2 1 3 3 2 2 2 6 3 6 2 2 7 3 1 3 1 6 2 6 3 5 2 1 6 3 6 
15 2 2 1 4 4 3 1 4 3 3 4 3 2 2 6 3 5 2 3 2 4 2 2 1 1 2 1 2 2 5 4 1 2 1 3 4 4 2 1 3 4 1 2 1 4 4 3 2 3 5 4 2 2 3 5 4 6 2 2 3 4 7 3 2 3 3 1 4 6 2 3 7 4 3 2 2 7 3 4 
15 2 2 3 3 4 3 1 5 2 6 3 2 2 1 5 2 2 2 1 1 3 4 2 2 3 4 1 2 3 4 4 1 2 3 2 4 1 2 3 4 4 1 2 1 4 2 1 2 2 1 3 5 2 2 2 3 4 3 2 7 3 1 4 5 2 2 3 4 1 3 2 1 3 2 4 3 2 3 2 4 2 
0 3 2 6 8 
0 3 2 6 8 
2 0 1 3 4 5 7 
0 3 4 5 6 
2 2 3 3 9 10 14 
2 2 3 3 9 10 12 
3 3 0 1 1 7 
2 2 6 3 9 11 12 
2 1 0 2 10 12 
3 5 7 4 1 13 
3 5 8 4 2 11 13 
2 10 7 0 
3 5 7 8 2 13 14 
3 9 12 10 0 
2 12 4 0 
0 3 16 18 20 
1 15 3 21 22 23 
0 3 18 20 22 
2 15 17 3 21 23 25 
0 3 20 21 22 
3 15 17 19 3 23 24 25 
3 18 16 19 2 24 27 
3 17 19 16 3 24 25 27 
3 16 18 20 2 26 27 
3 21 22 20 2 26 28 
3 22 18 20 2 26 28 
3 25 23 24 1 29 
3 21 22 23 2 28 29 
3 27 25 24 0 
2 26 27 0 
0 3 33 34 36 
0 3 33 34 36 
0 3 33 34 36 
3 31 32 30 3 35 39 44 
3 30 32 31 3 35 39 44 
2 33 34 3 37 38 42 
3 32 31 30 3 37 38 39 
2 36 35 2 40 41 
2 35 36 2 40 41 
3 36 33 34 3 40 41 42 
3 37 38 39 1 43 
3 38 37 39 1 43 
2 35 39 1 43 
3 40 41 42 0 
2 34 33 0 
0 3 47 48 51 
0 3 47 48 51 
2 46 45 2 49 54 
2 45 46 2 49 54 
2 47 48 3 50 53 58 
1 49 1 52 
2 46 45 3 52 53 54 
2 50 51 3 55 56 59 
2 49 51 3 55 56 59 
3 48 47 51 3 55 56 58 
3 53 54 52 0 
3 53 52 54 0 
0 1 58 
3 49 54 57 1 59 
3 52 53 58 0 
0 3 62 64 67 
0 3 62 64 67 
2 60 61 3 63 65 72 
1 62 2 68 70 
2 61 60 3 65 68 72 
2 62 64 2 69 70 
0 1 67 
3 61 60 66 3 68 70 72 
3 63 67 64 2 69 71 
2 65 68 2 73 74 
3 67 63 65 1 71 
2 70 68 2 73 74 
3 64 67 62 2 73 74 
3 69 71 72 0 
3 71 69 72 0 
0 3 76 77 87 
1 75 3 78 80 81 
1 75 3 78 80 81 
2 77 76 3 79 83 88 
1 78 3 82 84 85 
2 76 77 3 82 83 84 
2 76 77 3 82 83 84 
3 81 80 79 2 86 89 
3 81 80 78 2 85 86 
3 79 81 80 1 86 
2 79 83 1 89 
3 83 84 82 0 
1 75 1 88 
2 78 87 1 89 
3 82 85 88 0 
0 3 92 93 96 
0 3 92 93 96 
2 90 91 3 94 99 101 
2 90 91 3 94 99 101 
2 93 92 3 95 102 103 
1 94 2 97 104 
2 90 91 3 97 101 102 
2 95 96 1 100 
0 2 99 103 
3 98 92 93 3 100 102 104 
2 97 99 0 
3 96 92 93 2 103 104 
3 99 94 96 0 
3 98 94 101 0 
3 95 99 101 0 
0 3 107 108 109 
0 3 107 108 109 
2 105 106 3 110 113 114 
2 105 106 3 110 113 114 
2 106 105 3 110 113 114 
3 108 107 109 2 111 116 
1 110 3 112 117 119 
1 111 1 118 
3 109 107 108 1 116 
3 109 107 108 1 116 
0 3 117 118 119 
3 113 114 110 3 117 118 119 
3 111 116 115 0 
3 116 112 115 0 
3 116 115 111 0 
